0
Node Left Objective IInf Best_Integer Best_Bound ItCnt Gap
0+ 0 nan nan 883.5817 0.0000 nan 100.00%
0+ 0 nan nan 639.6325 0.0000 nan 100.00%
0 0 262.6193 7 639.6325 262.6193 42 58.94%
0 0 288.8460 8 639.6325 Cuts:9 67 54.84%
0+ 0 nan nan 462.8177 288.8460 nan 37.59%
0 0 306.2558 9 462.8177 Cuts:17 86 33.83%
0 0 319.6011 9 462.8177 Cuts:13 119 30.94%
0 0 326.0777 8 462.8177 Cuts:10 135 29.55%
0+ 0 nan nan 423.2225 326.0777 nan 22.95%
0 0 331.6434 9 423.2225 Cuts:8 155 21.64%
0+ 0 nan nan 415.0905 331.6434 nan 20.10%
0 0 332.2318 9 415.0905 LiftProj:3 161 19.96%
0 0 333.8915 9 415.0905 Cuts:6 169 19.56%
0 0 335.5163 8 415.0905 LiftProj:6 182 19.17%
0 0 336.2571 9 415.0905 Cuts:8 192 18.99%
0 0 337.1697 9 415.0905 LiftProj:3 205 18.77%
0 0 339.7969 9 415.0905 LiftProj:7 220 18.14%
0 0 343.5498 9 415.0905 Cuts:7 239 17.23%
0 0 344.6909 9 415.0905 LiftProj:5 249 16.96%
0 0 347.7214 9 415.0905 Cuts:6 267 16.23%
0 0 348.8759 9 415.0905 LiftProj:7 276 15.95%
0 0 349.6879 9 415.0905 LiftProj:3 282 15.76%
0 0 350.3843 9 415.0905 LiftProj:5 289 15.59%
0 0 351.6220 9 415.0905 LiftProj:4 299 15.29%
0 0 352.7275 9 415.0905 LiftProj:6 312 15.02%
0 0 353.4775 9 415.0905 LiftProj:6 322 14.84%
0 0 353.8419 9 415.0905 LiftProj:5 332 14.76%
0 0 354.4812 9 415.0905 LiftProj:6 339 14.60%
0 0 355.7488 9 415.0905 LiftProj:5 351 14.30%
0 0 356.0706 9 415.0905 LiftProj:5 355 14.22%
0 0 357.2257 9 415.0905 LiftProj:7 367 13.94%
0 0 357.8086 9 415.0905 LiftProj:4 374 13.80%
0 0 358.6130 9 415.0905 LiftProj:6 383 13.61%
0 0 358.7864 9 415.0905 LiftProj:4 392 13.56%
0 0 359.4767 9 415.0905 LiftProj:4 403 13.40%
0 0 360.7243 9 415.0905 LiftProj:5 414 13.10%
0 0 361.4657 9 415.0905 LiftProj:5 420 12.92%
0 0 361.6571 9 415.0905 LiftProj:5 427 12.87%
0 0 361.9117 9 415.0905 LiftProj:4 432 12.81%
0 0 361.9217 9 415.0905 LiftProj:3 433 12.81%
0 0 362.4635 9 415.0905 LiftProj:4 440 12.68%
0 0 362.7646 9 415.0905 LiftProj:4 446 12.61%
0 0 363.0801 9 415.0905 LiftProj:6 451 12.53%
0 0 363.7107 9 415.0905 LiftProj:5 459 12.38%
0 0 364.0448 9 415.0905 LiftProj:8 462 12.30%
0 0 365.2319 9 415.0905 LiftProj:4 471 12.01%
0 0 365.7195 9 415.0905 LiftProj:5 479 11.89%
0 0 365.8250 9 415.0905 LiftProj:3 486 11.87%
0 2 366.9018 8 415.0905 369.2419 486 11.05%
CPXPARAM_MIP_Cuts_Gomory-Disjunctive-LiftProj:Gomory 24
CPXPARAM_MIP_Cuts_Gomory-Disjunctive-LiftProj:Disjunctive 1
CPXPARAM_MIP_Cuts_Gomory-Disjunctive-LiftProj:LiftProj 0
1
Node Left Objective IInf Best_Integer Best_Bound ItCnt Gap
0+ 0 nan nan 883.5817 0.0000 nan 100.00%
0 0 0 262.6193 262.6193 40 0.00% 0
CPXPARAM_MIP_Cuts_Gomory-Disjunctive-LiftProj:Gomory 0
CPXPARAM_MIP_Cuts_Gomory-Disjunctive-LiftProj:Disjunctive 0
CPXPARAM_MIP_Cuts_Gomory-Disjunctive-LiftProj:LiftProj 0
2
Node Left Objective IInf Best_Integer Best_Bound ItCnt Gap
0+ 0 nan nan 883.5817 0.0000 nan 100.00%
0+ 0 nan nan 639.6325 0.0000 nan 100.00%
0 0 269.4766 5 639.6325 269.4766 42 57.87%
0 0 279.5547 7 639.6325 Cuts:7 54 56.29%
0+ 0 nan nan 583.4780 279.5547 nan 52.09%
0 0 307.4952 7 583.4780 Cuts:15 70 47.30%
0+ 0 nan nan 415.0905 307.4952 nan 25.92%
0 0 323.4704 8 415.0905 Cuts:17 97 22.07%
0 0 343.1014 9 415.0905 Cuts:8 116 17.34%
0 0 348.8573 8 415.0905 Cuts:7 134 15.96%
0 0 350.4838 9 415.0905 Cuts:6 146 15.56%
0 0 351.1341 9 415.0905 LiftProj:4 154 15.41%
0 0 352.0519 9 415.0905 Cuts:5 164 15.19%
0 0 352.5936 9 415.0905 LiftProj:5 174 15.06%
0 0 353.1583 7 415.0905 Cuts:7 186 14.92%
0 0 353.4610 7 415.0905 LiftProj:6 190 14.85%
0 0 356.5517 9 415.0905 LiftProj:5 202 14.10%
0 0 360.3905 9 415.0905 LiftProj:12 217 13.18%
0 0 360.7293 8 415.0905 LiftProj:5 227 13.10%
0 0 362.0366 8 415.0905 LiftProj:6 237 12.78%
0 0 362.9869 9 415.0905 Cuts:12 246 12.55%
0 0 365.3874 9 415.0905 LiftProj:4 259 11.97%
0 0 365.4862 9 415.0905 LiftProj:3 264 11.95%
0 0 366.1913 9 415.0905 LiftProj:5 280 11.78%
0 0 367.2279 9 415.0905 LiftProj:4 288 11.53%
0 0 368.9075 9 415.0905 LiftProj:5 302 11.13%
0 0 369.4686 9 415.0905 LiftProj:6 311 10.99%
0 0 369.7150 9 415.0905 LiftProj:4 317 10.93%
0 0 369.9947 9 415.0905 LiftProj:7 325 10.86%
0 0 370.4940 9 415.0905 LiftProj:5 337 10.74%
0 0 371.4517 9 415.0905 LiftProj:9 350 10.51%
0 0 371.6111 9 415.0905 LiftProj:6 355 10.47%
0 0 371.9411 9 415.0905 LiftProj:7 360 10.40%
0 0 372.4865 8 415.0905 LiftProj:6 368 10.26%
0 0 373.8413 7 415.0905 LiftProj:6 377 9.94%
0 0 374.5888 9 415.0905 LiftProj:4 386 9.76%
0 0 375.5303 9 415.0905 LiftProj:7 401 9.53%
0 0 376.2302 8 415.0905 LiftProj:6 410 9.36%
0 0 377.3014 9 415.0905 LiftProj:4 419 9.10%
0 0 377.8764 8 415.0905 LiftProj:6 426 8.97%
0 0 378.4928 8 415.0905 LiftProj:4 435 8.82%
0 0 378.6591 8 415.0905 LiftProj:5 441 8.78%
0 0 379.7869 9 415.0905 LiftProj:5 450 8.51%
0 0 380.1466 8 415.0905 LiftProj:7 460 8.42%
0 0 381.8606 8 415.0905 LiftProj:4 471 8.01%
0 0 382.0273 7 415.0905 LiftProj:4 477 7.97%
0 0 382.4608 7 415.0905 LiftProj:6 481 7.86%
0 0 383.0273 8 415.0905 LiftProj:4 488 7.72%
0 0 383.1453 8 415.0905 LiftProj:5 494 7.70%
0 0 383.2358 7 415.0905 LiftProj:6 499 7.67%
0 2 386.9092 4 415.0905 386.9601 499 6.78%
CPXPARAM_MIP_Cuts_Gomory-Disjunctive-LiftProj:Gomory 24
CPXPARAM_MIP_Cuts_Gomory-Disjunctive-LiftProj:Disjunctive 0
CPXPARAM_MIP_Cuts_Gomory-Disjunctive-LiftProj:LiftProj 0
3
Node Left Objective IInf Best_Integer Best_Bound ItCnt Gap
0+ 0 nan nan 883.5817 0.0000 nan 100.00%
0 0 314.8220 1 883.5817 314.8220 38 64.37%
0+ 0 nan nan 315.1239 314.8220 nan 0.10%
0 0 0 314.8876 Fract:1 40 0.00%
0 0 cutoff 314.8876 314.8876 40 0.00% 0
CPXPARAM_MIP_Cuts_Gomory-Disjunctive-LiftProj:Gomory 0
CPXPARAM_MIP_Cuts_Gomory-Disjunctive-LiftProj:Disjunctive 1
CPXPARAM_MIP_Cuts_Gomory-Disjunctive-LiftProj:LiftProj 0
4
Node Left Objective IInf Best_Integer Best_Bound ItCnt Gap
0+ 0 nan nan 693.8542 0.0000 nan 100.00%
0+ 0 nan nan 634.5912 0.0000 nan 100.00%
0 0 405.5114 7 634.5912 405.5114 50 36.10%
0 0 410.2300 9 634.5912 Cuts:8 64 35.36%
0+ 0 nan nan 455.9855 410.2300 nan 10.03%
0 0 417.3839 9 455.9855 Cuts:14 77 8.47%
0 0 422.1563 8 455.9855 Cuts:10 92 7.42%
0 0 425.0162 8 455.9855 Cuts:11 110 6.79%
0 0 425.3043 8 455.9855 Cuts:5 116 6.73%
0 0 425.6416 8 455.9855 LiftProj:3 123 6.65%
0 0 425.9089 8 455.9855 LiftProj:3 133 6.60%
0 0 426.2821 8 455.9855 Cuts:4 143 6.51%
0 0 426.4311 8 455.9855 LiftProj:3 149 6.48%
0 0 426.5164 8 455.9855 LiftProj:3 152 6.46%
0 0 426.6890 8 455.9855 LiftProj:3 163 6.42%
0 0 426.7734 8 455.9855 LiftProj:3 168 6.41%
0+ 0 nan nan 441.1644 426.7734 nan 3.26%
0 0 435.2029 7 441.1644 LiftProj:2 188 1.35%
0 0 435.4755 7 441.1644 LiftProj:3 192 1.29%
0 0 435.6125 7 441.1644 Cuts:5 199 1.26%
0 0 436.2566 7 441.1644 LiftProj:3 206 1.11%
0 0 436.3798 7 441.1644 LiftProj:2 211 1.08%
0 0 436.5126 7 441.1644 LiftProj:5 216 1.05%
0 0 436.6830 7 441.1644 LiftProj:5 225 1.02%
0 0 437.2340 7 441.1644 LiftProj:5 234 0.89%
0 0 437.2916 7 441.1644 LiftProj:2 237 0.88%
0 0 437.6121 7 441.1644 LiftProj:3 241 0.81%
0 0 437.9200 7 441.1644 LiftProj:3 248 0.74%
0 0 438.2600 7 441.1644 LiftProj:3 252 0.66%
0 0 438.7273 7 441.1644 LiftProj:6 262 0.55%
0 0 439.4970 7 441.1644 LiftProj:3 268 0.38%
0 0 439.5308 7 441.1644 LiftProj:1 271 0.37%
0 0 cutoff 441.1644 439.5308 277 0.37% 0
CPXPARAM_MIP_Cuts_Gomory-Disjunctive-LiftProj:Gomory 17
CPXPARAM_MIP_Cuts_Gomory-Disjunctive-LiftProj:Disjunctive 0
CPXPARAM_MIP_Cuts_Gomory-Disjunctive-LiftProj:LiftProj 0
5
Node Left Objective IInf Best_Integer Best_Bound ItCnt Gap
0+ 0 nan nan 693.8542 0.0000 nan 100.00%
0 0 405.5114 1 693.8542 405.5114 49 41.56%
0+ 0 nan nan 407.3057 405.5114 nan 0.44%
0 0 0 405.9187 405.9187 52 0.00% 0
CPXPARAM_MIP_Cuts_Gomory-Disjunctive-LiftProj:Gomory 0
CPXPARAM_MIP_Cuts_Gomory-Disjunctive-LiftProj:Disjunctive 0
CPXPARAM_MIP_Cuts_Gomory-Disjunctive-LiftProj:LiftProj 0
6
Node Left Objective IInf Best_Integer Best_Bound ItCnt Gap
0+ 0 nan nan 693.8542 0.0000 nan 100.00%
0+ 0 nan nan 652.0517 0.0000 nan 100.00%
0+ 0 nan nan 648.3061 0.0000 nan 100.00%
0 0 405.5114 7 648.3061 405.5114 44 37.45%
0 0 412.6168 9 648.3061 Cuts:8 54 36.35%
0+ 0 nan nan 449.4074 412.6168 nan 8.19%
0 0 416.7749 9 449.4074 Cuts:19 68 7.26%
0 0 419.2781 9 449.4074 Cuts:15 85 6.70%
0 0 420.5860 9 449.4074 Cuts:12 97 6.41%
0 0 422.8806 9 449.4074 Cuts:11 116 5.90%
0 0 423.2134 9 449.4074 Cuts:5 122 5.83%
0 0 423.4875 9 449.4074 LiftProj:6 126 5.77%
0 0 424.3400 9 449.4074 Cuts:4 132 5.58%
0 0 425.4934 9 449.4074 LiftProj:5 140 5.32%
0 0 426.0423 8 449.4074 LiftProj:3 148 5.20%
0 0 426.1146 9 449.4074 Cuts:4 152 5.18%
0+ 0 nan nan 441.1644 426.1146 nan 3.41%
0 0 426.5534 9 441.1644 Cuts:5 159 3.31%
0 0 426.9483 9 441.1644 LiftProj:3 164 3.22%
0 0 427.3299 9 441.1644 LiftProj:3 169 3.14%
0 0 428.0365 9 441.1644 LiftProj:2 179 2.98%
0 0 428.1700 9 441.1644 LiftProj:3 184 2.95%
0 0 428.2641 9 441.1644 LiftProj:3 187 2.92%
0 0 428.4112 8 441.1644 LiftProj:3 195 2.89%
0 0 428.5275 9 441.1644 LiftProj:3 200 2.86%
0 0 428.5717 9 441.1644 LiftProj:3 203 2.85%
0 0 428.6665 9 441.1644 LiftProj:3 207 2.83%
0 0 428.6728 9 441.1644 LiftProj:2 209 2.83%
0 2 430.1720 7 441.1644 430.7336 209 2.36%
CPXPARAM_MIP_Cuts_Gomory-Disjunctive-LiftProj:Gomory 13
CPXPARAM_MIP_Cuts_Gomory-Disjunctive-LiftProj:Disjunctive 0
CPXPARAM_MIP_Cuts_Gomory-Disjunctive-LiftProj:LiftProj 3
7
Node Left Objective IInf Best_Integer Best_Bound ItCnt Gap
0+ 0 nan nan 693.8542 0.0000 nan 100.00%
0 0 0 425.0746 425.0746 34 0.00% 0
CPXPARAM_MIP_Cuts_Gomory-Disjunctive-LiftProj:Gomory 0
CPXPARAM_MIP_Cuts_Gomory-Disjunctive-LiftProj:Disjunctive 0
CPXPARAM_MIP_Cuts_Gomory-Disjunctive-LiftProj:LiftProj 0
8
Node Left Objective IInf Best_Integer Best_Bound ItCnt Gap
0+ 0 nan nan 845.6683 0.0000 nan 100.00%
0+ 0 nan nan 648.8417 0.0000 nan 100.00%
0 0 484.8467 7 648.8417 484.8467 54 25.28%
0 0 509.7426 9 648.8417 Cuts:8 66 21.44%
0+ 0 nan nan 626.4130 509.7426 nan 18.63%
0 0 518.8325 9 626.4130 Cuts:16 79 17.17%
0 0 527.5094 9 626.4130 Cuts:19 92 15.79%
0 0 532.8255 9 626.4130 Cuts:17 103 14.94%
0 0 537.2579 9 626.4130 Cuts:12 112 14.23%
0 0 539.3354 9 626.4130 Cuts:12 122 13.90%
0 0 540.5869 9 626.4130 Cuts:7 129 13.70%
0 0 541.4819 9 626.4130 LiftProj:6 139 13.56%
0+ 0 nan nan 607.3004 541.4819 nan 10.84%
0 0 542.9669 9 607.3004 Cuts:6 149 10.59%
0 0 543.7703 8 607.3004 Cuts:7 157 10.46%
0 0 544.5724 8 607.3004 LiftProj:6 166 10.33%
0 0 545.3275 9 607.3004 LiftProj:6 172 10.20%
0 0 546.0716 9 607.3004 LiftProj:6 180 10.08%
0 0 546.6387 9 607.3004 LiftProj:6 189 9.99%
0 0 546.8476 9 607.3004 LiftProj:8 193 9.95%
0 0 547.1178 9 607.3004 LiftProj:8 198 9.91%
0 0 548.1695 9 607.3004 LiftProj:5 212 9.74%
0 0 548.8634 9 607.3004 LiftProj:6 220 9.62%
0+ 0 nan nan 595.8307 548.8634 nan 7.88%
0 0 549.1048 9 595.8307 LiftProj:7 224 7.84%
0 0 549.2856 9 595.8307 LiftProj:5 229 7.81%
0 0 549.8061 9 595.8307 Cuts:9 236 7.72%
0 0 550.8475 9 595.8307 LiftProj:4 245 7.55%
0 0 551.0325 9 595.8307 LiftProj:7 250 7.52%
0+ 0 nan nan 589.5104 551.0325 nan 6.53%
0 0 551.4597 9 589.5104 LiftProj:6 258 6.45%
0 0 551.9507 9 589.5104 LiftProj:4 264 6.37%
0 0 552.0845 9 589.5104 LiftProj:3 269 6.35%
0 0 552.4925 9 589.5104 LiftProj:8 274 6.28%
0 0 552.6404 9 589.5104 LiftProj:9 281 6.25%
0 2 553.2001 8 589.5104 553.7764 281 6.06%
CPXPARAM_MIP_Cuts_Gomory-Disjunctive-LiftProj:Gomory 19
CPXPARAM_MIP_Cuts_Gomory-Disjunctive-LiftProj:Disjunctive 1
CPXPARAM_MIP_Cuts_Gomory-Disjunctive-LiftProj:LiftProj 1
9
Node Left Objective IInf Best_Integer Best_Bound ItCnt Gap
0+ 0 nan nan 845.6683 0.0000 nan 100.00%
0 0 0 484.8467 484.8467 43 0.00% 0
CPXPARAM_MIP_Cuts_Gomory-Disjunctive-LiftProj:Gomory 0
CPXPARAM_MIP_Cuts_Gomory-Disjunctive-LiftProj:Disjunctive 0
CPXPARAM_MIP_Cuts_Gomory-Disjunctive-LiftProj:LiftProj 0
10
Node Left Objective IInf Best_Integer Best_Bound ItCnt Gap
0+ 0 nan nan 845.6683 0.0000 nan 100.00%
0 0 498.6071 5 845.6683 498.6071 38 41.04%
0+ 0 nan nan 697.1349 498.6071 nan 28.48%
0 0 504.9148 8 697.1349 Cuts:8 49 27.57%
0+ 0 nan nan 648.8417 504.9148 nan 22.18%
0 0 526.5844 8 648.8417 Cuts:16 67 18.84%
0+ 0 nan nan 589.5104 526.5844 nan 10.67%
0 0 531.9620 8 589.5104 Cuts:13 82 9.76%
0 0 534.8383 8 589.5104 Cuts:15 94 9.27%
0 0 537.5029 8 589.5104 Cuts:10 113 8.82%
0 0 540.6307 8 589.5104 Cuts:10 130 8.29%
0 0 542.3669 8 589.5104 Cuts:7 139 8.00%
0 0 544.3270 8 589.5104 LiftProj:5 150 7.66%
0 0 545.0740 8 589.5104 LiftProj:8 158 7.54%
0 0 547.0251 8 589.5104 LiftProj:7 168 7.21%
0 0 549.3304 8 589.5104 LiftProj:5 179 6.82%
0 0 551.5495 9 589.5104 LiftProj:5 195 6.44%
0 0 551.6660 9 589.5104 Cuts:5 200 6.42%
0 0 551.8678 9 589.5104 LiftProj:8 205 6.39%
0 0 552.0031 8 589.5104 LiftProj:4 208 6.36%
0 0 553.1559 9 589.5104 LiftProj:5 216 6.17%
0 0 553.4688 9 589.5104 LiftProj:6 223 6.11%
0 0 553.6404 9 589.5104 LiftProj:6 228 6.08%
0 0 554.4550 8 589.5104 LiftProj:5 241 5.95%
0 0 554.8650 8 589.5104 LiftProj:4 247 5.88%
0 0 555.1394 8 589.5104 LiftProj:5 254 5.83%
0 0 555.2407 8 589.5104 LiftProj:5 257 5.81%
0 0 555.4829 8 589.5104 Cuts:6 262 5.77%
0 0 555.7036 9 589.5104 LiftProj:4 266 5.73%
0 0 555.9174 9 589.5104 LiftProj:5 271 5.70%
0 0 556.0009 9 589.5104 LiftProj:5 275 5.68%
0 2 558.4818 8 589.5104 558.7205 275 5.22%
CPXPARAM_MIP_Cuts_Gomory-Disjunctive-LiftProj:Gomory 21
CPXPARAM_MIP_Cuts_Gomory-Disjunctive-LiftProj:Disjunctive 0
CPXPARAM_MIP_Cuts_Gomory-Disjunctive-LiftProj:LiftProj 0
11
Node Left Objective IInf Best_Integer Best_Bound ItCnt Gap
0+ 0 nan nan 845.6683 0.0000 nan 100.00%
0 0 0 561.1585 561.1585 45 0.00% 0
CPXPARAM_MIP_Cuts_Gomory-Disjunctive-LiftProj:Gomory 0
CPXPARAM_MIP_Cuts_Gomory-Disjunctive-LiftProj:Disjunctive 0
CPXPARAM_MIP_Cuts_Gomory-Disjunctive-LiftProj:LiftProj 0
12
Node Left Objective IInf Best_Integer Best_Bound ItCnt Gap
0+ 0 nan nan 656.4681 0.0000 nan 100.00%
0+ 0 nan nan 534.4657 0.0000 nan 100.00%
0 0 386.2283 7 534.4657 386.2283 47 27.74%
0 0 391.1700 9 534.4657 Cuts:7 64 26.81%
0+ 0 nan nan 521.2586 391.1700 nan 24.96%
0 0 400.1816 9 521.2586 Cuts:16 72 23.23%
0+ 0 nan nan 474.3633 400.1816 nan 15.64%
0 0 407.6773 9 474.3633 Cuts:14 87 14.06%
0 0 411.7269 9 474.3633 Cuts:13 97 13.20%
0 0 417.7442 9 474.3633 Cuts:15 112 11.94%
0 0 418.8642 8 474.3633 LiftProj:5 120 11.70%
0 0 419.2536 9 474.3633 Cuts:4 125 11.62%
0 0 419.7554 9 474.3633 Cuts:6 129 11.51%
0 0 420.0529 9 474.3633 LiftProj:5 137 11.45%
0 0 420.4583 9 474.3633 Cuts:6 143 11.36%
0 0 421.1063 9 474.3633 LiftProj:4 147 11.23%
0 0 421.5618 8 474.3633 LiftProj:4 154 11.13%
0 0 421.6832 9 474.3633 LiftProj:3 159 11.11%
0 0 421.8208 9 474.3633 LiftProj:4 166 11.08%
0 0 421.8985 9 474.3633 LiftProj:4 170 11.06%
0 0 421.9096 9 474.3633 LiftProj:3 172 11.06%
0 0 421.9597 9 474.3633 LiftProj:4 176 11.05%
0 2 421.9597 9 474.3633 422.4466 176 10.94%
CPXPARAM_MIP_Cuts_Gomory-Disjunctive-LiftProj:Gomory 14
CPXPARAM_MIP_Cuts_Gomory-Disjunctive-LiftProj:Disjunctive 0
CPXPARAM_MIP_Cuts_Gomory-Disjunctive-LiftProj:LiftProj 3
13
Node Left Objective IInf Best_Integer Best_Bound ItCnt Gap
0+ 0 nan nan 656.4681 0.0000 nan 100.00%
0 0 0 389.1110 389.1110 45 0.00% 0
CPXPARAM_MIP_Cuts_Gomory-Disjunctive-LiftProj:Gomory 0
CPXPARAM_MIP_Cuts_Gomory-Disjunctive-LiftProj:Disjunctive 0
CPXPARAM_MIP_Cuts_Gomory-Disjunctive-LiftProj:LiftProj 0
14
Node Left Objective IInf Best_Integer Best_Bound ItCnt Gap
0+ 0 nan nan 656.4681 0.0000 nan 100.00%
0+ 0 nan nan 534.4657 0.0000 nan 100.00%
0 0 386.2283 7 534.4657 386.2283 36 27.74%
0 0 391.4708 9 534.4657 Cuts:8 55 26.75%
0+ 0 nan nan 521.2586 391.4708 nan 24.90%
0 0 398.7505 9 521.2586 Cuts:15 63 23.50%
0+ 0 nan nan 474.3633 398.7505 nan 15.94%
0 0 413.6983 9 474.3633 Cuts:19 73 12.79%
0 0 420.4371 9 474.3633 Cuts:17 93 11.37%
0 0 422.1849 9 474.3633 Cuts:15 111 11.00%
0+ 0 nan nan 465.9177 422.1849 nan 9.39%
0 0 425.2175 9 465.9177 Cuts:8 126 8.74%
0 0 427.1075 9 465.9177 LiftProj:7 134 8.33%
0 0 428.8213 9 465.9177 Cuts:13 148 7.96%
0 0 429.6018 9 465.9177 LiftProj:8 157 7.79%
0 0 430.5329 9 465.9177 LiftProj:8 170 7.59%
0 0 431.3713 9 465.9177 LiftProj:11 181 7.41%
0 0 431.7956 9 465.9177 LiftProj:6 186 7.32%
0 0 432.2837 9 465.9177 LiftProj:10 195 7.22%
0 0 432.6372 9 465.9177 LiftProj:6 202 7.14%
0 0 433.6419 9 465.9177 Cuts:14 215 6.93%
0 0 434.8850 9 465.9177 LiftProj:7 225 6.66%
0 0 435.4186 9 465.9177 LiftProj:6 233 6.55%
0 0 435.8154 9 465.9177 LiftProj:6 237 6.46%
0 0 436.0342 9 465.9177 Cuts:9 241 6.41%
0 0 436.6651 9 465.9177 LiftProj:7 246 6.28%
0 0 436.6880 9 465.9177 LiftProj:10 249 6.27%
0 0 436.9242 9 465.9177 LiftProj:8 255 6.22%
0 0 437.5105 9 465.9177 LiftProj:7 260 6.10%
0 0 437.5611 9 465.9177 LiftProj:3 262 6.09%
0 2 437.6287 8 465.9177 439.6197 262 5.64%
CPXPARAM_MIP_Cuts_Gomory-Disjunctive-LiftProj:Gomory 19
CPXPARAM_MIP_Cuts_Gomory-Disjunctive-LiftProj:Disjunctive 0
CPXPARAM_MIP_Cuts_Gomory-Disjunctive-LiftProj:LiftProj 0
15
Node Left Objective IInf Best_Integer Best_Bound ItCnt Gap
0+ 0 nan nan 656.4681 0.0000 nan 100.00%
0 0 0 410.1756 410.1756 35 0.00% 0
CPXPARAM_MIP_Cuts_Gomory-Disjunctive-LiftProj:Gomory 0
CPXPARAM_MIP_Cuts_Gomory-Disjunctive-LiftProj:Disjunctive 0
CPXPARAM_MIP_Cuts_Gomory-Disjunctive-LiftProj:LiftProj 0
16
Node Left Objective IInf Best_Integer Best_Bound ItCnt Gap
0+ 0 nan nan 673.4267 0.0000 nan 100.00%
0+ 0 nan nan 482.5302 0.0000 nan 100.00%
0 0 417.5617 7 482.5302 417.5617 54 13.46%
0 0 420.1512 9 482.5302 Cuts:6 65 12.93%
0+ 0 nan nan 475.1344 420.1512 nan 11.57%
0 0 426.2103 9 475.1344 Cuts:18 82 10.30%
0+ 0 nan nan 465.5226 426.2103 nan 8.44%
0 0 428.6727 8 465.5226 Cuts:13 91 7.92%
0 0 430.9459 9 465.5226 Cuts:14 103 7.43%
0 0 432.8663 9 465.5226 Cuts:12 115 7.01%
0 0 433.4292 9 465.5226 LiftProj:4 120 6.89%
0 0 434.3774 9 465.5226 LiftProj:4 131 6.69%
0 0 434.6356 8 465.5226 Cuts:12 143 6.63%
0 0 434.7123 9 465.5226 LiftProj:4 148 6.62%
0 0 434.8855 9 465.5226 LiftProj:4 153 6.58%
0 0 435.3898 9 465.5226 LiftProj:7 160 6.47%
0 0 435.8135 8 465.5226 LiftProj:8 169 6.38%
0 0 436.1176 9 465.5226 LiftProj:5 176 6.32%
0 0 436.1772 9 465.5226 LiftProj:5 179 6.30%
0 0 436.4037 9 465.5226 Cuts:8 187 6.26%
0 0 436.4979 9 465.5226 LiftProj:6 194 6.23%
0 0 436.7573 9 465.5226 Cuts:6 202 6.18%
0 0 436.8936 9 465.5226 LiftProj:4 207 6.15%
0 0 437.1470 9 465.5226 LiftProj:4 213 6.10%
0 0 437.1540 9 465.5226 LiftProj:5 215 6.09%
0 2 437.2400 8 465.5226 437.9524 215 5.92%
CPXPARAM_MIP_Cuts_Gomory-Disjunctive-LiftProj:Gomory 14
CPXPARAM_MIP_Cuts_Gomory-Disjunctive-LiftProj:Disjunctive 0
CPXPARAM_MIP_Cuts_Gomory-Disjunctive-LiftProj:LiftProj 2
17
Node Left Objective IInf Best_Integer Best_Bound ItCnt Gap
0+ 0 nan nan 673.4267 0.0000 nan 100.00%
0 0 0 425.9937 425.9937 45 0.00% 0
CPXPARAM_MIP_Cuts_Gomory-Disjunctive-LiftProj:Gomory 0
CPXPARAM_MIP_Cuts_Gomory-Disjunctive-LiftProj:Disjunctive 0
CPXPARAM_MIP_Cuts_Gomory-Disjunctive-LiftProj:LiftProj 0
18
Node Left Objective IInf Best_Integer Best_Bound ItCnt Gap
0+ 0 nan nan 673.4267 0.0000 nan 100.00%
0 0 423.0032 5 673.4267 423.0032 39 37.19%
0+ 0 nan nan 591.6412 423.0032 nan 28.50%
0 0 424.6875 7 591.6412 Cuts:7 51 28.22%
0+ 0 nan nan 465.5226 424.6875 nan 8.77%
0 0 428.0040 7 465.5226 Cuts:11 60 8.06%
0 0 431.7753 8 465.5226 Cuts:14 77 7.25%
0 0 434.1216 7 465.5226 Cuts:16 95 6.75%
0 0 436.5517 7 465.5226 Cuts:10 113 6.22%
0 0 437.0725 8 465.5226 LiftProj:5 123 6.11%
0 0 437.1761 8 465.5226 Cuts:6 130 6.09%
0 0 437.2693 8 465.5226 Cuts:8 141 6.07%
0 0 437.3535 8 465.5226 LiftProj:3 145 6.05%
0 0 437.3753 8 465.5226 LiftProj:4 152 6.05%
0 0 437.6020 8 465.5226 Cuts:6 160 6.00%
0 0 437.7964 8 465.5226 LiftProj:3 162 5.96%
0 0 437.8737 8 465.5226 Cuts:5 166 5.94%
0 0 438.0103 8 465.5226 LiftProj:4 170 5.91%
0 0 438.0588 8 465.5226 LiftProj:4 173 5.90%
0 2 438.4183 7 465.5226 439.5265 173 5.58%
CPXPARAM_MIP_Cuts_Gomory-Disjunctive-LiftProj:Gomory 9
CPXPARAM_MIP_Cuts_Gomory-Disjunctive-LiftProj:Disjunctive 0
CPXPARAM_MIP_Cuts_Gomory-Disjunctive-LiftProj:LiftProj 5
19
Node Left Objective IInf Best_Integer Best_Bound ItCnt Gap
0+ 0 nan nan 673.4267 0.0000 nan 100.00%
0+ 0 nan nan 448.7922 0.0000 nan 100.00%
0 0 0 446.2379 446.2379 37 0.00% 0
CPXPARAM_MIP_Cuts_Gomory-Disjunctive-LiftProj:Gomory 0
CPXPARAM_MIP_Cuts_Gomory-Disjunctive-LiftProj:Disjunctive 0
CPXPARAM_MIP_Cuts_Gomory-Disjunctive-LiftProj:LiftProj 0
20
Node Left Objective IInf Best_Integer Best_Bound ItCnt Gap
0+ 0 nan nan 525.1284 0.0000 nan 100.00%
0+ 0 nan nan 499.7053 0.0000 nan 100.00%
0 0 283.8374 7 499.7053 283.8374 45 43.20%
0+ 0 nan nan 335.4671 283.8374 nan 15.39%
0 0 286.5261 9 335.4671 Cuts:6 55 14.59%
0 0 296.1357 9 335.4671 Cuts:15 73 11.72%
0+ 0 nan nan 315.2212 296.1357 nan 6.05%
0 0 299.7908 9 315.2212 Cuts:11 88 4.90%
0 0 302.6281 8 315.2212 Cuts:10 103 3.99%
0 0 303.9835 9 315.2212 Cuts:7 113 3.56%
0 0 305.3194 8 315.2212 LiftProj:2 122 3.14%
0 0 305.5828 8 315.2212 LiftProj:3 125 3.06%
0 0 305.5900 8 315.2212 LiftProj:3 127 3.06%
0 0 305.5995 8 315.2212 LiftProj:2 130 3.05%
0 2 305.9548 7 315.2212 307.6445 130 2.40%
CPXPARAM_MIP_Cuts_Gomory-Disjunctive-LiftProj:Gomory 7
CPXPARAM_MIP_Cuts_Gomory-Disjunctive-LiftProj:Disjunctive 0
CPXPARAM_MIP_Cuts_Gomory-Disjunctive-LiftProj:LiftProj 3
21
Node Left Objective IInf Best_Integer Best_Bound ItCnt Gap
0+ 0 nan nan 525.1284 0.0000 nan 100.00%
0 0 0 283.8374 283.8374 44 0.00% 0
CPXPARAM_MIP_Cuts_Gomory-Disjunctive-LiftProj:Gomory 0
CPXPARAM_MIP_Cuts_Gomory-Disjunctive-LiftProj:Disjunctive 0
CPXPARAM_MIP_Cuts_Gomory-Disjunctive-LiftProj:LiftProj 0
22
Node Left Objective IInf Best_Integer Best_Bound ItCnt Gap
0+ 0 nan nan 525.1284 0.0000 nan 100.00%
0+ 0 nan nan 502.7786 0.0000 nan 100.00%
0 0 286.9244 7 502.7786 286.9244 33 42.93%
0+ 0 nan nan 406.3795 286.9244 nan 29.39%
0 0 295.3304 8 406.3795 Cuts:9 45 27.33%
0+ 0 nan nan 392.9654 295.3304 nan 24.85%
0 0 302.3762 9 392.9654 Cuts:12 53 23.05%
0+ 0 nan nan 331.4363 302.3762 nan 8.77%
0 0 303.0423 8 331.4363 Cuts:5 61 8.57%
0 0 306.3033 9 331.4363 Cuts:6 70 7.58%
0+ 0 nan nan 315.4732 306.3033 nan 2.91%
0 0 309.4533 8 315.4732 Cuts:6 79 1.91%
0 0 312.6659 4 315.4732 Fract:1 92 0.89%
0 0 312.9176 3 315.4732 Cuts:4 95 0.81%
0 0 312.9615 4 315.4732 LiftProj:2 96 0.80%
0 0 313.7226 4 315.4732 LiftProj:2 102 0.55%
0 0 314.5038 3 315.4732 LiftProj:2 107 0.31%
0 0 314.5082 3 315.4732 LiftProj:1 108 0.31%
0 0 314.5310 3 315.4732 LiftProj:1 109 0.30%
0 0 cutoff 315.4732 314.5310 116 0.30% 0
CPXPARAM_MIP_Cuts_Gomory-Disjunctive-LiftProj:Gomory 6
CPXPARAM_MIP_Cuts_Gomory-Disjunctive-LiftProj:Disjunctive 0
CPXPARAM_MIP_Cuts_Gomory-Disjunctive-LiftProj:LiftProj 0
23
Node Left Objective IInf Best_Integer Best_Bound ItCnt Gap
0+ 0 nan nan 525.1284 0.0000 nan 100.00%
0 0 0 293.4740 293.4740 26 0.00% 0
CPXPARAM_MIP_Cuts_Gomory-Disjunctive-LiftProj:Gomory 0
CPXPARAM_MIP_Cuts_Gomory-Disjunctive-LiftProj:Disjunctive 0
CPXPARAM_MIP_Cuts_Gomory-Disjunctive-LiftProj:LiftProj 0
24
Node Left Objective IInf Best_Integer Best_Bound ItCnt Gap
0+ 0 nan nan 549.2671 0.0000 nan 100.00%
0+ 0 nan nan 473.7492 0.0000 nan 100.00%
0 0 363.2658 7 473.7492 363.2658 42 23.32%
0+ 0 nan nan 458.3613 363.2658 nan 20.75%
0 0 366.2716 9 458.3613 Cuts:8 58 20.09%
0+ 0 nan nan 444.0143 366.2716 nan 17.51%
0 0 369.2855 9 444.0143 Cuts:10 74 16.83%
0+ 0 nan nan 399.6484 369.2855 nan 7.60%
0 0 373.9645 8 399.6484 Cuts:11 88 6.43%
0 0 375.4791 8 399.6484 Cuts:8 97 6.05%
0 0 376.2936 9 399.6484 Cuts:9 108 5.84%
0 0 376.5662 8 399.6484 Cuts:4 115 5.78%
0 0 376.8986 8 399.6484 Cuts:3 120 5.69%
0 0 377.2041 8 399.6484 Cuts:6 125 5.62%
0 0 377.3918 8 399.6484 LiftProj:2 127 5.57%
0 0 377.5834 8 399.6484 LiftProj:3 131 5.52%
0 0 377.9246 8 399.6484 LiftProj:2 135 5.44%
0 0 378.0583 8 399.6484 LiftProj:3 139 5.40%
0 0 378.0700 8 399.6484 LiftProj:4 142 5.40%
0 0 378.0758 8 399.6484 LiftProj:1 144 5.40%
0 2 378.0758 8 399.6484 378.0997 144 5.39%
CPXPARAM_MIP_Cuts_Gomory-Disjunctive-LiftProj:Gomory 9
CPXPARAM_MIP_Cuts_Gomory-Disjunctive-LiftProj:Disjunctive 2
CPXPARAM_MIP_Cuts_Gomory-Disjunctive-LiftProj:LiftProj 1
25
Node Left Objective IInf Best_Integer Best_Bound ItCnt Gap
0+ 0 nan nan 549.2671 0.0000 nan 100.00%
0 0 0 372.4575 372.4575 43 0.00% 0
CPXPARAM_MIP_Cuts_Gomory-Disjunctive-LiftProj:Gomory 0
CPXPARAM_MIP_Cuts_Gomory-Disjunctive-LiftProj:Disjunctive 0
CPXPARAM_MIP_Cuts_Gomory-Disjunctive-LiftProj:LiftProj 0
26
Node Left Objective IInf Best_Integer Best_Bound ItCnt Gap
0+ 0 nan nan 549.2671 0.0000 nan 100.00%
0+ 0 nan nan 476.4585 0.0000 nan 100.00%
0 0 372.1627 6 476.4585 372.1627 30 21.89%
0 0 377.4827 6 476.4585 Cuts:6 41 20.77%
0+ 0 nan nan 404.2019 377.4827 nan 6.61%
0 0 381.5643 6 404.2019 Cuts:13 52 5.60%
0+ 0 nan nan 399.6484 381.5643 nan 4.52%
0 0 383.4093 7 399.6484 Cuts:14 65 4.06%
0 0 385.0891 6 399.6484 Cuts:17 75 3.64%
0 0 386.8536 6 399.6484 Cuts:8 83 3.20%
0 0 386.9208 6 399.6484 Cuts:5 86 3.18%
0 0 387.1590 6 399.6484 LiftProj:3 89 3.13%
0 0 387.2975 7 399.6484 LiftProj:2 92 3.09%
0 0 387.7090 7 399.6484 LiftProj:4 98 2.99%
0 0 387.7272 7 399.6484 LiftProj:3 100 2.98%
0 0 388.1085 6 399.6484 LiftProj:2 109 2.89%
0 0 388.3477 7 399.6484 Cuts:5 113 2.83%
0 0 388.4529 7 399.6484 LiftProj:3 116 2.80%
0 0 388.4817 6 399.6484 LiftProj:2 118 2.79%
0+ 0 nan nan 396.1684 388.4817 nan 1.94%
0 2 388.7769 5 396.1684 389.2725 118 1.74%
CPXPARAM_MIP_Cuts_Gomory-Disjunctive-LiftProj:Gomory 9
CPXPARAM_MIP_Cuts_Gomory-Disjunctive-LiftProj:Disjunctive 0
CPXPARAM_MIP_Cuts_Gomory-Disjunctive-LiftProj:LiftProj 2
27
Node Left Objective IInf Best_Integer Best_Bound ItCnt Gap
0+ 0 nan nan 549.2671 0.0000 nan 100.00%
0 0 0 385.0255 385.0255 33 0.00% 0
CPXPARAM_MIP_Cuts_Gomory-Disjunctive-LiftProj:Gomory 0
CPXPARAM_MIP_Cuts_Gomory-Disjunctive-LiftProj:Disjunctive 0
CPXPARAM_MIP_Cuts_Gomory-Disjunctive-LiftProj:LiftProj 0
28
Node Left Objective IInf Best_Integer Best_Bound ItCnt Gap
0+ 0 nan nan 941.7205 0.0000 nan 100.00%
0+ 0 nan nan 872.5219 0.0000 nan 100.00%
0 0 601.4591 6 872.5219 601.4591 44 31.07%
0+ 0 nan nan 737.8283 601.4591 nan 18.48%
0 0 604.1563 8 737.8283 Cuts:5 54 18.12%
0+ 0 nan nan 696.2579 604.1563 nan 13.23%
0 0 616.1083 8 696.2579 Cuts:15 72 11.51%
0+ 0 nan nan 652.5589 616.1083 nan 5.59%
0 0 620.5243 7 652.5589 Cuts:19 86 4.91%
0 0 623.5183 8 652.5589 Cuts:14 98 4.45%
0 0 629.4319 8 652.5589 Cuts:10 109 3.54%
0 0 630.1878 8 652.5589 Cuts:5 114 3.43%
0 0 630.8020 8 652.5589 LiftProj:3 118 3.33%
0 0 631.8865 8 652.5589 LiftProj:3 126 3.17%
0 0 632.2426 8 652.5589 LiftProj:3 131 3.11%
0 0 632.5085 8 652.5589 LiftProj:4 135 3.07%
0 0 632.9835 8 652.5589 LiftProj:5 143 3.00%
0 0 633.4988 8 652.5589 LiftProj:3 147 2.92%
0 0 633.6608 8 652.5589 LiftProj:2 153 2.90%
0 0 633.8640 8 652.5589 LiftProj:3 160 2.86%
0 0 633.9517 8 652.5589 LiftProj:3 164 2.85%
0 0 633.9964 8 652.5589 LiftProj:3 169 2.84%
0 2 634.5243 6 652.5589 635.5018 169 2.61%
CPXPARAM_MIP_Cuts_Gomory-Disjunctive-LiftProj:Gomory 14
CPXPARAM_MIP_Cuts_Gomory-Disjunctive-LiftProj:Disjunctive 0
CPXPARAM_MIP_Cuts_Gomory-Disjunctive-LiftProj:LiftProj 3
29
Node Left Objective IInf Best_Integer Best_Bound ItCnt Gap
0+ 0 nan nan 941.7205 0.0000 nan 100.00%
0 0 0 596.9704 596.9704 48 0.00% 0
CPXPARAM_MIP_Cuts_Gomory-Disjunctive-LiftProj:Gomory 0
CPXPARAM_MIP_Cuts_Gomory-Disjunctive-LiftProj:Disjunctive 0
CPXPARAM_MIP_Cuts_Gomory-Disjunctive-LiftProj:LiftProj 0
30
Node Left Objective IInf Best_Integer Best_Bound ItCnt Gap
0+ 0 nan nan 941.7205 0.0000 nan 100.00%
0+ 0 nan nan 877.2624 0.0000 nan 100.00%
0 0 601.4591 6 877.2624 601.4591 46 31.44%
0+ 0 nan nan 696.2579 601.4591 nan 13.62%
0 0 603.7062 8 696.2579 Disjcuts:4 55 13.29%
0 0 613.9826 7 696.2579 Cuts:15 69 11.82%
0+ 0 nan nan 652.5589 613.9826 nan 5.91%
0 0 621.5924 8 652.5589 Cuts:18 82 4.75%
0 0 630.5324 8 652.5589 Cuts:11 102 3.38%
0 0 631.7199 6 652.5589 Cuts:13 109 3.19%
0 0 634.7712 8 652.5589 Cuts:6 118 2.73%
0 0 635.0842 7 652.5589 LiftProj:2 121 2.68%
0 0 635.2541 7 652.5589 LiftProj:2 125 2.65%
0 0 635.6008 9 652.5589 LiftProj:3 132 2.60%
0 0 636.4387 8 652.5589 LiftProj:1 135 2.47%
0 0 636.8004 9 652.5589 LiftProj:5 142 2.41%
0 0 637.6485 9 652.5589 Cuts:4 147 2.28%
0 0 637.7764 9 652.5589 LiftProj:3 151 2.27%
0 0 638.0587 7 652.5589 LiftProj:2 158 2.22%
0 0 638.3171 8 652.5589 LiftProj:3 164 2.18%
0 0 638.4078 9 652.5589 LiftProj:4 169 2.17%
0 0 638.4145 9 652.5589 LiftProj:6 171 2.17%
0 0 cutoff 652.5589 638.4145 171 2.17% 0
CPXPARAM_MIP_Cuts_Gomory-Disjunctive-LiftProj:Gomory 11
CPXPARAM_MIP_Cuts_Gomory-Disjunctive-LiftProj:Disjunctive 2
CPXPARAM_MIP_Cuts_Gomory-Disjunctive-LiftProj:LiftProj 2
31
Node Left Objective IInf Best_Integer Best_Bound ItCnt Gap
0+ 0 nan nan 941.7205 0.0000 nan 100.00%
0 0 0 601.4591 601.4591 41 0.00% 0
CPXPARAM_MIP_Cuts_Gomory-Disjunctive-LiftProj:Gomory 0
CPXPARAM_MIP_Cuts_Gomory-Disjunctive-LiftProj:Disjunctive 0
CPXPARAM_MIP_Cuts_Gomory-Disjunctive-LiftProj:LiftProj 0
32
Node Left Objective IInf Best_Integer Best_Bound ItCnt Gap
0+ 0 nan nan 671.2898 0.0000 nan 100.00%
0+ 0 nan nan 538.6067 0.0000 nan 100.00%
0 0 285.1772 7 538.6067 285.1772 48 47.05%
0+ 0 nan nan 527.4518 285.1772 nan 45.93%
0 0 296.8300 9 527.4518 Cuts:7 62 43.72%
0+ 0 nan nan 398.4261 296.8300 nan 25.50%
0 0 311.8492 8 398.4261 Cuts:12 78 21.73%
0+ 0 nan nan 392.1998 311.8492 nan 20.49%
0 0 321.0112 9 392.1998 Cuts:10 90 18.15%
0 0 329.3497 9 392.1998 Cuts:9 107 16.03%
0 0 333.2812 8 392.1998 Cuts:8 117 15.02%
0 0 336.5504 8 392.1998 Cuts:6 127 14.19%
0 0 339.2944 8 392.1998 Cuts:7 138 13.49%
0 0 339.5532 9 392.1998 Cuts:5 147 13.42%
0 0 339.9210 9 392.1998 LiftProj:4 152 13.33%
0 0 340.4178 9 392.1998 LiftProj:6 170 13.20%
0 0 340.7779 9 392.1998 LiftProj:4 174 13.11%
0 0 340.9541 8 392.1998 Cuts:9 179 13.07%
0 0 341.1718 9 392.1998 LiftProj:4 185 13.01%
0 0 341.1836 9 392.1998 LiftProj:5 186 13.01%
0 0 341.2936 8 392.1998 LiftProj:4 189 12.98%
0 0 341.4390 9 392.1998 Cuts:5 195 12.94%
0 0 341.6013 8 392.1998 LiftProj:4 201 12.90%
0 0 341.7760 8 392.1998 LiftProj:4 206 12.86%
0 0 342.0148 9 392.1998 LiftProj:4 211 12.80%
0 0 342.3002 9 392.1998 LiftProj:4 216 12.72%
0 0 342.3510 9 392.1998 LiftProj:4 218 12.71%
0 2 343.9744 8 392.1998 344.0390 218 12.28%
CPXPARAM_MIP_Cuts_Gomory-Disjunctive-LiftProj:Gomory 14
CPXPARAM_MIP_Cuts_Gomory-Disjunctive-LiftProj:Disjunctive 0
CPXPARAM_MIP_Cuts_Gomory-Disjunctive-LiftProj:LiftProj 5
33
Node Left Objective IInf Best_Integer Best_Bound ItCnt Gap
0+ 0 nan nan 671.2898 0.0000 nan 100.00%
0 0 304.9439 1 671.2898 304.9439 48 54.57%
0+ 0 nan nan 305.0518 304.9439 nan 0.04%
0 0 0 304.9870 304.9870 50 0.00% 0
CPXPARAM_MIP_Cuts_Gomory-Disjunctive-LiftProj:Gomory 0
CPXPARAM_MIP_Cuts_Gomory-Disjunctive-LiftProj:Disjunctive 0
CPXPARAM_MIP_Cuts_Gomory-Disjunctive-LiftProj:LiftProj 0
34
Node Left Objective IInf Best_Integer Best_Bound ItCnt Gap
0+ 0 nan nan 671.2898 0.0000 nan 100.00%
0+ 0 nan nan 548.6165 0.0000 nan 100.00%
0 0 304.9439 6 548.6165 304.9439 32 44.42%
0+ 0 nan nan 522.3973 304.9439 nan 41.63%
0 0 307.5007 8 522.3973 Cuts:8 44 41.14%
0+ 0 nan nan 462.2964 307.5007 nan 33.48%
0 0 317.6879 7 462.2964 Cuts:13 58 31.28%
0+ 0 nan nan 398.4261 317.6879 nan 20.26%
0 0 327.5818 7 398.4261 Cuts:15 76 17.78%
0+ 0 nan nan 392.1998 327.5818 nan 16.48%
0 0 335.9668 6 392.1998 Cuts:11 89 14.34%
0 0 343.0509 7 392.1998 Cuts:9 106 12.53%
0 0 343.8070 7 392.1998 Cuts:5 112 12.34%
0 0 344.1047 7 392.1998 LiftProj:5 119 12.26%
0 0 345.2513 8 392.1998 Cuts:6 127 11.97%
0 0 345.5492 9 392.1998 LiftProj:6 133 11.89%
0 0 346.0184 9 392.1998 Cuts:5 137 11.77%
0 0 346.7846 9 392.1998 LiftProj:6 144 11.58%
0 0 348.2902 9 392.1998 LiftProj:4 152 11.20%
0 0 349.6005 9 392.1998 Cuts:6 161 10.86%
0 0 350.3893 9 392.1998 LiftProj:6 167 10.66%
0 0 352.4965 9 392.1998 Cuts:6 180 10.12%
0 0 353.1630 9 392.1998 LiftProj:6 188 9.95%
0 0 353.7875 7 392.1998 LiftProj:4 194 9.79%
0 0 354.0567 9 392.1998 LiftProj:9 201 9.73%
0 0 354.7901 8 392.1998 LiftProj:5 211 9.54%
0 0 355.2505 8 392.1998 LiftProj:6 222 9.42%
0 0 355.7322 8 392.1998 LiftProj:4 231 9.30%
0 0 356.0217 9 392.1998 LiftProj:12 238 9.22%
0 0 356.2388 9 392.1998 LiftProj:5 242 9.17%
0 0 356.3945 9 392.1998 LiftProj:4 247 9.13%
0 0 356.8277 8 392.1998 LiftProj:6 256 9.02%
0 0 357.0428 7 392.1998 Cuts:9 261 8.96%
0 0 357.1879 8 392.1998 LiftProj:5 265 8.93%
0 0 357.4575 8 392.1998 LiftProj:5 270 8.86%
0 0 357.6150 9 392.1998 LiftProj:5 275 8.82%
0 0 358.4289 8 392.1998 LiftProj:5 287 8.61%
0 0 358.5271 9 392.1998 Cuts:12 296 8.59%
0 0 358.5812 8 392.1998 LiftProj:6 299 8.57%
0 2 359.9328 6 392.1998 360.5614 299 8.07%
CPXPARAM_MIP_Cuts_Gomory-Disjunctive-LiftProj:Gomory 20
CPXPARAM_MIP_Cuts_Gomory-Disjunctive-LiftProj:Disjunctive 1
CPXPARAM_MIP_Cuts_Gomory-Disjunctive-LiftProj:LiftProj 2
35
Node Left Objective IInf Best_Integer Best_Bound ItCnt Gap
0+ 0 nan nan 671.2898 0.0000 nan 100.00%
0 0 0 363.5184 363.5184 29 0.00% 0
CPXPARAM_MIP_Cuts_Gomory-Disjunctive-LiftProj:Gomory 0
CPXPARAM_MIP_Cuts_Gomory-Disjunctive-LiftProj:Disjunctive 0
CPXPARAM_MIP_Cuts_Gomory-Disjunctive-LiftProj:LiftProj 0
36
Node Left Objective IInf Best_Integer Best_Bound ItCnt Gap
0+ 0 nan nan 758.0328 0.0000 nan 100.00%
0+ 0 nan nan 643.3001 0.0000 nan 100.00%
0 0 431.0120 7 643.3001 431.0120 48 33.00%
0+ 0 nan nan 591.9356 431.0120 nan 27.19%
0 0 434.0791 9 591.9356 Cuts:7 58 26.67%
0 0 441.3766 9 591.9356 Cuts:10 72 25.44%
0+ 0 nan nan 534.0033 441.3766 nan 17.35%
0 0 446.4636 9 534.0033 Cuts:17 85 16.39%
0+ 0 nan nan 497.5652 446.4636 nan 10.27%
0 0 447.6343 9 497.5652 Cuts:9 95 10.04%
0 0 449.5597 9 497.5652 Cuts:13 114 9.65%
0 0 451.4553 9 497.5652 Cuts:10 126 9.27%
0 0 451.8536 9 497.5652 LiftProj:5 133 9.19%
0 0 453.1649 9 497.5652 Cuts:6 146 8.92%
0 0 454.1369 9 497.5652 Cuts:8 160 8.73%
0 0 454.8592 9 497.5652 Cuts:6 170 8.58%
0 0 455.3165 9 497.5652 Cuts:7 180 8.49%
0 0 456.0593 9 497.5652 LiftProj:6 189 8.34%
0 0 456.3933 9 497.5652 LiftProj:7 193 8.27%
0 0 458.0005 9 497.5652 LiftProj:6 200 7.95%
0 0 458.4328 9 497.5652 LiftProj:6 206 7.86%
0 0 458.8329 9 497.5652 LiftProj:6 213 7.78%
0 0 458.8601 9 497.5652 LiftProj:6 214 7.78%
0 0 459.1586 9 497.5652 LiftProj:5 220 7.72%
0 0 459.4956 9 497.5652 LiftProj:6 224 7.65%
0 0 459.6897 9 497.5652 LiftProj:6 230 7.61%
0 0 459.7784 9 497.5652 LiftProj:5 232 7.59%
0 2 460.5562 8 497.5652 460.7341 232 7.40%
CPXPARAM_MIP_Cuts_Gomory-Disjunctive-LiftProj:Gomory 18
CPXPARAM_MIP_Cuts_Gomory-Disjunctive-LiftProj:Disjunctive 0
CPXPARAM_MIP_Cuts_Gomory-Disjunctive-LiftProj:LiftProj 1
37
Node Left Objective IInf Best_Integer Best_Bound ItCnt Gap
0+ 0 nan nan 758.0328 0.0000 nan 100.00%
0 0 0 431.0120 431.0120 52 0.00% 0
CPXPARAM_MIP_Cuts_Gomory-Disjunctive-LiftProj:Gomory 0
CPXPARAM_MIP_Cuts_Gomory-Disjunctive-LiftProj:Disjunctive 0
CPXPARAM_MIP_Cuts_Gomory-Disjunctive-LiftProj:LiftProj 0
38
Node Left Objective IInf Best_Integer Best_Bound ItCnt Gap
0+ 0 nan nan 758.0328 0.0000 nan 100.00%
0+ 0 nan nan 644.4799 0.0000 nan 100.00%
0 0 431.2487 6 644.4799 431.2487 42 33.09%
0+ 0 nan nan 591.9356 431.2487 nan 27.15%
0 0 434.3898 8 591.9356 Cuts:5 52 26.62%
0 0 440.7658 9 591.9356 Cuts:17 64 25.54%
0+ 0 nan nan 534.0033 440.7658 nan 17.46%
0 0 448.1340 9 534.0033 Cuts:12 78 16.08%
0+ 0 nan nan 504.0961 448.1340 nan 11.10%
0 0 450.2666 9 504.0961 Cuts:14 90 10.68%
0 0 453.3614 8 504.0961 Cuts:9 104 10.06%
0 0 454.2060 8 504.0961 LiftProj:5 109 9.90%
0 0 454.7319 8 504.0961 Cuts:7 117 9.79%
0 0 455.4883 9 504.0961 LiftProj:6 125 9.64%
0 0 456.4143 8 504.0961 LiftProj:5 131 9.46%
0 0 456.9571 8 504.0961 Cuts:11 141 9.35%
0 0 458.3693 8 504.0961 LiftProj:8 149 9.07%
0 0 458.9688 9 504.0961 LiftProj:10 160 8.95%
0 0 459.9204 9 504.0961 LiftProj:7 172 8.76%
0 0 460.8323 8 504.0961 LiftProj:6 181 8.58%
0 0 461.8936 8 504.0961 LiftProj:5 187 8.37%
0+ 0 nan nan 497.5652 461.8936 nan 7.17%
0 0 462.1507 8 497.5652 LiftProj:7 191 7.12%
0 0 462.4558 8 497.5652 LiftProj:6 195 7.06%
0 0 463.4327 8 497.5652 LiftProj:5 200 6.86%
0 0 463.5189 9 497.5652 LiftProj:3 203 6.84%
0 0 463.6328 8 497.5652 LiftProj:4 208 6.82%
0 0 463.6811 9 497.5652 LiftProj:4 210 6.81%
0 2 463.8827 8 497.5652 465.2129 210 6.50%
CPXPARAM_MIP_Cuts_Gomory-Disjunctive-LiftProj:Gomory 16
CPXPARAM_MIP_Cuts_Gomory-Disjunctive-LiftProj:Disjunctive 0
CPXPARAM_MIP_Cuts_Gomory-Disjunctive-LiftProj:LiftProj 1
39
Node Left Objective IInf Best_Integer Best_Bound ItCnt Gap
0+ 0 nan nan 758.0328 0.0000 nan 100.00%
0+ 0 nan nan 451.8439 0.0000 nan 100.00%
0 0 cutoff 451.8439 451.8439 34 0.00%
0 0 cutoff 451.8439 451.8439 34 0.00% 0
CPXPARAM_MIP_Cuts_Gomory-Disjunctive-LiftProj:Gomory 0
CPXPARAM_MIP_Cuts_Gomory-Disjunctive-LiftProj:Disjunctive 0
CPXPARAM_MIP_Cuts_Gomory-Disjunctive-LiftProj:LiftProj 0
